(set-logic QF_S)
(declare-fun var0 () String)
(declare-fun var1 () String)
(declare-fun var2 () String)
(declare-fun var3 () String)
(declare-fun var4 () String)
(declare-fun var5 () String)
(declare-fun var6 () String)
(declare-fun var7 () String)
(declare-fun var8 () String)
(declare-fun var9 () String)
(declare-fun var10 () String)
(declare-fun var11 () String)
(declare-fun var12 () String)
(declare-fun var13 () String)
(declare-fun var14 () String)
(declare-fun var15 () String)
(declare-fun var16 () String)
(declare-fun var17 () String)
(declare-fun var18 () String)
(declare-fun var19 () String)
(declare-fun var20 () String)
(declare-fun var21 () String)
(declare-fun var22 () String)
(declare-fun var23 () String)
(declare-fun var24 () String)
(declare-fun var25 () String)
(declare-fun var26 () String)
(declare-fun var27 () String)
(declare-fun var28 () String)
(declare-fun var29 () String)
(declare-fun var30 () String)
(declare-fun var31 () String)
(declare-fun var32 () String)
(declare-fun var33 () String)
(declare-fun var34 () String)
(declare-fun var35 () String)
(declare-fun var36 () String)
(declare-fun var37 () String)
(declare-fun var38 () String)
(declare-fun var39 () String)
(declare-fun var40 () String)
(declare-fun var41 () String)
(declare-fun var42 () String)
(declare-fun var43 () String)
(declare-fun var44 () String)
(declare-fun var45 () String)
(declare-fun var46 () String)
(declare-fun var47 () String)
(declare-fun var48 () String)
(declare-fun var49 () String)
(declare-fun var50 () String)
(declare-fun var51 () String)
(declare-fun var52 () String)
(declare-fun var53 () String)
(declare-fun var54 () String)
(declare-fun var55 () String)
(declare-fun var56 () String)
(declare-fun var57 () String)
(declare-fun var58 () String)
(declare-fun var59 () String)
(declare-fun var60 () String)
(assert (= var0 (str.++ var1 var2)))
(assert (= var2 (str.++ var3 var4)))
(assert (= var4 (str.++ var5 var6)))
(assert (= var6 (str.++ var7 var8)))
(assert (= var8 (str.++ var9 var10)))
(assert (= var10 (str.++ var11 var12)))
(assert (= var12 (str.++ var13 var14)))
(assert (= var14 (str.++ var15 var16)))
(assert (= var16 (str.++ var17 var18)))
(assert (= var18 (str.++ var19 var20)))
(assert (= var20 (str.++ var21 var22)))
(assert (= var22 (str.++ var23 var24)))
(assert (= var24 (str.++ var25 var26)))
(assert (= var26 (str.++ var27 var28)))
(assert (= var28 (str.++ var29 var30)))
(assert (= var30 (str.++ var31 var32)))
(assert (= var32 (str.++ var33 var34)))
(assert (= var34 (str.++ var35 var36)))
(assert (= var36 (str.++ var37 var38)))
(assert (= var38 (str.++ var39 var40)))
(assert (= var40 (str.++ var41 var42)))
(assert (= var42 (str.++ var43 var44)))
(assert (= var44 (str.++ var45 var46)))
(assert (= var46 (str.++ var47 var48)))
(assert (= var48 (str.++ var49 var50)))
(assert (= var50 (str.++ var51 var52)))
(assert (= var52 (str.++ var53 var54)))
(assert (= var54 (str.++ var55 var56)))
(assert (= var56 (str.++ var57 var58)))
(assert (= var58 (str.++ var59 var60)))
(assert (= var0 "solution"))
(assert (= "|" (str.at var38 955)))
(assert (= ";" (str.at var41 799)))
(assert (= "|" (str.at var34 127)))
(assert (= "$" (str.at var24 223)))
(assert (= "." (str.at var56 292)))
(assert (= "Y" (str.at var55 919)))
(assert (= ";" (str.at var42 444)))
(assert (= "," (str.at var31 744)))
(assert (= "}" (str.at var23 686)))
(assert (= "." (str.at var58 92)))
(assert (= "-" (str.at var26 295)))
(assert (= "Z" (str.at var38 597)))
(assert (= "*" (str.at var26 287)))
(assert (= "P" (str.at var19 739)))
(assert (= "o" (str.at var10 472)))
(assert (= ">" (str.at var14 266)))
(assert (= """" (str.at var27 333)))
(assert (= "k" (str.at var51 643)))
(assert (= "3" (str.at var14 112)))
(assert (= "W" (str.at var18 46)))
(assert (= "_" (str.at var56 956)))
(assert (= "." (str.at var41 604)))
(assert (= "p" (str.at var8 621)))
(assert (= "o" (str.at var40 308)))
(assert (= "-" (str.at var5 227)))
(assert (= "_" (str.at var57 106)))
(assert (= "2" (str.at var53 561)))
(assert (= "E" (str.at var28 633)))
(assert (= "X" (str.at var36 508)))
(assert (= "~" (str.at var30 661)))
(assert (= "e" (str.at var3 289)))
(assert (= "\\" (str.at var31 10)))
(assert (= "D" (str.at var9 147)))
(assert (= "=" (str.at var47 128)))
(assert (= "(" (str.at var54 618)))
(assert (= "b" (str.at var51 729)))
(assert (= "X" (str.at var58 4)))
(assert (= "2" (str.at var57 464)))
(assert (= "C" (str.at var19 239)))
(assert (= """" (str.at var4 745)))
(assert (= "1" (str.at var20 966)))
(assert (= "(" (str.at var6 339)))
(assert (= "[" (str.at var52 753)))
(assert (= "l" (str.at var54 278)))
(assert (= "K" (str.at var58 426)))
(assert (= "g" (str.at var53 781)))
(assert (= "o" (str.at var39 955)))
(assert (= "$" (str.at var42 746)))
(assert (= "<" (str.at var54 505)))
(assert (= "Y" (str.at var38 214)))
(assert (= ":" (str.at var39 585)))
(assert (= "s" (str.at var30 895)))
(assert (= "{" (str.at var52 210)))
(assert (= "Z" (str.at var44 767)))
(assert (= "?" (str.at var59 287)))
(assert (= "J" (str.at var59 825)))
(assert (= "Z" (str.at var0 967)))
(assert (= "O" (str.at var49 799)))
(assert (= "H" (str.at var51 39)))
(assert (= "%" (str.at var53 769)))
(assert (= "l" (str.at var20 976)))
(assert (= "m" (str.at var9 986)))
(assert (= "2" (str.at var29 311)))
(assert (= "o" (str.at var40 150)))
(assert (= "&" (str.at var45 690)))
(assert (= "4" (str.at var23 890)))
(assert (= "3" (str.at var14 92)))
(assert (= "w" (str.at var34 667)))
(assert (= "j" (str.at var9 843)))
(assert (= "p" (str.at var13 55)))
(assert (= ";" (str.at var56 409)))
(assert (= "5" (str.at var29 109)))
(assert (= "%" (str.at var56 309)))
(assert (= "B" (str.at var4 919)))
(assert (= "6" (str.at var0 366)))
(assert (= "V" (str.at var0 491)))
(assert (= "c" (str.at var30 858)))
(assert (= "^" (str.at var47 8)))
(assert (= "!" (str.at var44 282)))
(assert (= "Z" (str.at var10 375)))
(assert (= "|" (str.at var27 1)))
(assert (= "H" (str.at var19 82)))
(assert (= "'" (str.at var32 422)))
(assert (= "q" (str.at var48 486)))
(assert (= "1" (str.at var31 950)))
(assert (= "I" (str.at var55 781)))
(assert (= "\\" (str.at var29 332)))
(assert (= "d" (str.at var41 167)))
(assert (= "R" (str.at var59 82)))
(assert (= "/" (str.at var19 46)))
(assert (= "G" (str.at var5 475)))
(assert (= "1" (str.at var46 506)))
(assert (= "." (str.at var22 70)))
(assert (= "x" (str.at var37 35)))
(assert (= "7" (str.at var31 55)))
(assert (= "L" (str.at var25 176)))
(assert (= "&" (str.at var13 113)))
(assert (= ">" (str.at var30 13)))
(assert (= "l" (str.at var58 522)))
(assert (= "p" (str.at var4 904)))
(assert (= "r" (str.at var20 817)))
(assert (= "B" (str.at var1 371)))
(assert (= "O" (str.at var59 368)))
(assert (= "!" (str.at var47 894)))
(assert (= "x" (str.at var44 889)))
(assert (= "6" (str.at var16 774)))
(assert (= "{" (str.at var11 59)))
(assert (= "C" (str.at var7 152)))
(assert (= "U" (str.at var13 806)))
(assert (= "$" (str.at var35 136)))
(assert (= "U" (str.at var51 444)))
(assert (= "q" (str.at var46 341)))
(assert (= "F" (str.at var7 989)))
(assert (= "z" (str.at var10 826)))
(assert (= "X" (str.at var2 124)))
(assert (= "m" (str.at var51 103)))
(assert (= "J" (str.at var14 689)))
(assert (= "*" (str.at var4 155)))
(assert (= "M" (str.at var8 994)))
(assert (= "<" (str.at var29 61)))
(assert (= "=" (str.at var5 351)))
(assert (= "S" (str.at var60 743)))
(assert (= "V" (str.at var19 78)))
(assert (= "[" (str.at var23 900)))
(assert (= "?" (str.at var0 960)))
(assert (= "Y" (str.at var49 721)))
(assert (= "2" (str.at var59 614)))
(assert (= "/" (str.at var47 412)))
(assert (= "@" (str.at var44 917)))
(assert (= "=" (str.at var56 417)))
(assert (= "7" (str.at var43 911)))
(assert (= "N" (str.at var11 570)))
(assert (= "!" (str.at var50 143)))
(assert (= "W" (str.at var54 16)))
(assert (= "E" (str.at var10 698)))
(assert (= "=" (str.at var15 888)))
(assert (= "4" (str.at var7 606)))
(assert (= "B" (str.at var31 148)))
(assert (= "V" (str.at var6 195)))
(assert (= "\\" (str.at var32 235)))
(assert (= "F" (str.at var58 720)))
(assert (= "^" (str.at var22 648)))
(assert (= "4" (str.at var21 710)))
(assert (= "O" (str.at var26 154)))
(assert (= "c" (str.at var40 687)))
(assert (= "," (str.at var37 946)))
(assert (= "j" (str.at var29 582)))
(assert (= "O" (str.at var40 198)))
(assert (= "#" (str.at var31 516)))
(assert (= "|" (str.at var30 212)))
(assert (= "!" (str.at var19 512)))
(assert (= "<" (str.at var45 809)))
(assert (= "f" (str.at var5 39)))
(assert (= "6" (str.at var9 629)))
(assert (= "g" (str.at var30 586)))
(assert (= "c" (str.at var17 707)))
(assert (= "P" (str.at var39 182)))
(assert (= "?" (str.at var47 245)))
(assert (= """" (str.at var42 452)))
(assert (= "@" (str.at var51 348)))
(assert (= ">" (str.at var17 619)))
(assert (= "\\" (str.at var18 648)))
(assert (= "J" (str.at var49 436)))
(assert (= "{" (str.at var4 733)))
(assert (= "|" (str.at var55 95)))
(assert (= "A" (str.at var27 705)))
(assert (= "l" (str.at var52 201)))
(assert (= "=" (str.at var0 401)))
(assert (= "K" (str.at var13 498)))
(assert (= "h" (str.at var9 878)))
(assert (= "v" (str.at var51 150)))
(assert (= "D" (str.at var31 955)))
(assert (= ";" (str.at var19 862)))
(assert (= "(" (str.at var36 252)))
(assert (= "B" (str.at var56 797)))
(assert (= "$" (str.at var52 69)))
(assert (= "p" (str.at var51 465)))
(assert (= "P" (str.at var44 853)))
(assert (= "M" (str.at var20 655)))
(assert (= "1" (str.at var8 126)))
(assert (= "R" (str.at var52 191)))
(assert (= "I" (str.at var30 656)))
(assert (= "D" (str.at var20 936)))
(assert (= "#" (str.at var9 59)))
(assert (= "j" (str.at var19 781)))
(assert (= "c" (str.at var60 355)))
(assert (= """" (str.at var10 59)))
(assert (= "P" (str.at var42 572)))
(assert (= "=" (str.at var37 215)))
(assert (= "[" (str.at var53 565)))
(assert (= "\\" (str.at var44 523)))
(assert (= "r" (str.at var49 181)))
(assert (= "f" (str.at var14 794)))
(assert (= "E" (str.at var57 250)))
(assert (= "v" (str.at var56 495)))
(assert (= "\\" (str.at var16 483)))
(assert (= "^" (str.at var23 539)))
(assert (= "D" (str.at var36 40)))
(assert (= "8" (str.at var20 712)))
(assert (= ")" (str.at var42 517)))
(assert (= "E" (str.at var26 424)))
(assert (= "n" (str.at var9 142)))
(assert (= "4" (str.at var47 697)))
(assert (= "P" (str.at var0 564)))
(assert (= "&" (str.at var60 937)))
(assert (= "c" (str.at var42 857)))
(assert (= "7" (str.at var28 465)))
(assert (= ":" (str.at var0 134)))
(assert (= "x" (str.at var54 310)))
(assert (= "7" (str.at var51 772)))
(assert (= "%" (str.at var37 285)))
(assert (= "}" (str.at var0 471)))
(assert (= "j" (str.at var47 485)))
(assert (= "i" (str.at var2 100)))
(assert (= "f" (str.at var50 641)))
(assert (= "k" (str.at var5 51)))
(assert (= "C" (str.at var36 167)))
(assert (= ":" (str.at var46 382)))
(assert (= "'" (str.at var21 309)))
(assert (= "J" (str.at var29 704)))
(assert (= ">" (str.at var9 574)))
(assert (= "%" (str.at var15 634)))
(assert (= "U" (str.at var0 450)))
(assert (= "W" (str.at var51 80)))
(assert (= "R" (str.at var11 975)))
(assert (= "P" (str.at var47 217)))
(assert (= "o" (str.at var42 355)))
(assert (= "h" (str.at var29 733)))
(assert (= "z" (str.at var20 302)))
(assert (= "<" (str.at var55 586)))
(assert (= "u" (str.at var55 590)))
(assert (= "r" (str.at var39 128)))
(assert (= "v" (str.at var51 898)))
(assert (= "e" (str.at var20 450)))
(assert (= "n" (str.at var51 988)))
(assert (= "5" (str.at var19 663)))
(assert (= "R" (str.at var35 261)))
(assert (= "e" (str.at var51 76)))
(assert (= "5" (str.at var53 390)))
(assert (= "5" (str.at var3 339)))
(assert (= "[" (str.at var33 449)))
(assert (= "?" (str.at var3 114)))
(assert (= "]" (str.at var55 911)))
(assert (= "c" (str.at var5 225)))
(assert (= "v" (str.at var25 937)))
(assert (= ":" (str.at var51 397)))
(assert (= "a" (str.at var2 798)))
(assert (= "T" (str.at var20 146)))
(assert (= "%" (str.at var10 913)))
(assert (= "P" (str.at var20 816)))
(assert (= "N" (str.at var4 84)))
(assert (= "-" (str.at var15 408)))
(assert (= "&" (str.at var39 730)))
(assert (= "D" (str.at var47 956)))
(assert (= "/" (str.at var50 232)))
(assert (= "4" (str.at var52 260)))
(assert (= "8" (str.at var13 777)))
(assert (= "]" (str.at var39 372)))
(assert (= "P" (str.at var53 964)))
(assert (= "`" (str.at var38 721)))
(assert (= "|" (str.at var20 221)))
(assert (= "q" (str.at var16 641)))
(assert (= "#" (str.at var22 408)))
(assert (= "\\" (str.at var31 58)))
(assert (= "k" (str.at var21 613)))
(assert (= "|" (str.at var0 724)))
(assert (= "V" (str.at var12 456)))
(assert (= "&" (str.at var56 511)))
(assert (= "/" (str.at var7 134)))
(assert (= "I" (str.at var42 944)))
(assert (= "H" (str.at var11 215)))
(assert (= "(" (str.at var60 147)))
(assert (= "B" (str.at var51 831)))
(assert (= "*" (str.at var37 650)))
(assert (= "{" (str.at var24 7)))
(assert (= "Q" (str.at var52 758)))
(assert (= """" (str.at var16 642)))
(assert (= "}" (str.at var10 705)))
(assert (= "l" (str.at var24 670)))
(assert (= "N" (str.at var20 673)))
(assert (= "-" (str.at var44 413)))
(assert (= "P" (str.at var57 7)))
(assert (= "K" (str.at var43 243)))
(assert (= "I" (str.at var47 101)))
(assert (= "'" (str.at var19 381)))
(assert (= "~" (str.at var29 397)))
(assert (= "M" (str.at var60 920)))
(assert (= "r" (str.at var26 733)))
(assert (= "?" (str.at var23 543)))
(assert (= "@" (str.at var44 550)))
(assert (= "1" (str.at var0 523)))
(assert (= "2" (str.at var19 941)))
(assert (= "p" (str.at var41 104)))
(assert (= "?" (str.at var34 509)))
(assert (= "l" (str.at var55 580)))
(assert (= "F" (str.at var45 518)))
(assert (= "o" (str.at var7 986)))
(assert (= "*" (str.at var14 91)))
(assert (= "\\" (str.at var53 117)))
(assert (= "C" (str.at var53 190)))
(assert (= "/" (str.at var54 228)))
(assert (= "]" (str.at var40 623)))
(assert (= "b" (str.at var10 510)))
(assert (= "-" (str.at var57 498)))
(assert (= "+" (str.at var48 430)))
(assert (= "+" (str.at var54 92)))
(assert (= "7" (str.at var36 366)))
(assert (= "i" (str.at var33 850)))
(assert (= "u" (str.at var6 48)))
(assert (= "6" (str.at var18 138)))
(assert (= "~" (str.at var8 579)))
(assert (= "9" (str.at var25 86)))
(assert (= "S" (str.at var0 871)))
(assert (= "%" (str.at var0 368)))
(assert (= "^" (str.at var15 104)))
(assert (= "3" (str.at var42 701)))
(assert (= "v" (str.at var21 772)))
(assert (= "m" (str.at var55 438)))
(assert (= "I" (str.at var22 238)))
(assert (= "+" (str.at var32 226)))
(assert (= "N" (str.at var33 691)))
(assert (= ">" (str.at var0 194)))
(assert (= "^" (str.at var39 331)))
(assert (= "G" (str.at var19 524)))
(assert (= "$" (str.at var60 351)))
(assert (= "^" (str.at var60 545)))
(assert (= "s" (str.at var53 305)))
(assert (= "," (str.at var25 397)))
(assert (= "G" (str.at var51 202)))
(assert (= "Y" (str.at var43 721)))
(assert (= "C" (str.at var6 297)))
(assert (= ";" (str.at var52 790)))
(assert (= "T" (str.at var12 699)))
(assert (= "A" (str.at var19 496)))
(assert (= "%" (str.at var54 397)))
(assert (= "*" (str.at var21 121)))
(assert (= "~" (str.at var27 573)))
(assert (= "S" (str.at var11 232)))
(assert (= "u" (str.at var20 884)))
(assert (= "+" (str.at var0 501)))
(assert (= "P" (str.at var45 374)))
(assert (= "]" (str.at var60 461)))
(assert (= """" (str.at var5 785)))
(assert (= "y" (str.at var3 175)))
(assert (= "v" (str.at var58 747)))
(assert (= "n" (str.at var48 324)))
(assert (= ")" (str.at var12 906)))
(assert (= "<" (str.at var34 893)))
(assert (= "V" (str.at var59 639)))
(assert (= "F" (str.at var60 654)))
(assert (= "O" (str.at var11 713)))
(assert (= "c" (str.at var24 48)))
(assert (= "d" (str.at var37 220)))
(assert (= "V" (str.at var45 437)))
(assert (= "'" (str.at var20 112)))
(assert (= "-" (str.at var44 72)))
(assert (= "4" (str.at var3 563)))
(assert (= "k" (str.at var50 203)))
(assert (= "j" (str.at var47 388)))
(assert (= "o" (str.at var36 401)))
(assert (= "x" (str.at var12 249)))
(assert (= "*" (str.at var29 664)))
(assert (= "i" (str.at var49 850)))
(assert (= "c" (str.at var11 184)))
(assert (= "A" (str.at var25 645)))
(assert (= "x" (str.at var20 594)))
(assert (= "<" (str.at var59 29)))
(assert (= "M" (str.at var27 13)))
(assert (= "3" (str.at var13 144)))
(assert (= "%" (str.at var47 683)))
(assert (= "6" (str.at var39 838)))
(assert (= "&" (str.at var33 619)))
(assert (= "s" (str.at var27 874)))
(assert (= "a" (str.at var44 818)))
(assert (= "B" (str.at var11 933)))
(assert (= "I" (str.at var46 433)))
(assert (= "6" (str.at var5 932)))
(assert (= "Y" (str.at var49 452)))
(assert (= "E" (str.at var29 782)))
(assert (= "B" (str.at var43 166)))
(assert (= "n" (str.at var60 839)))
(assert (= "d" (str.at var4 790)))
(assert (= "O" (str.at var7 188)))
(assert (= "h" (str.at var60 550)))
(assert (= "c" (str.at var48 48)))
(assert (= "A" (str.at var39 841)))
(assert (= "'" (str.at var59 217)))
(assert (= "L" (str.at var38 838)))
(assert (= "o" (str.at var57 571)))
(assert (= "3" (str.at var19 979)))
(assert (= "[" (str.at var25 78)))
(assert (= "$" (str.at var47 481)))
(assert (= "E" (str.at var6 591)))
(assert (= "\\" (str.at var21 333)))
(assert (= "N" (str.at var59 844)))
(assert (= "," (str.at var5 456)))
(assert (= "i" (str.at var34 79)))
(assert (= "T" (str.at var15 5)))
(assert (= "$" (str.at var11 541)))
(assert (= "B" (str.at var30 697)))
(assert (= "M" (str.at var18 235)))
(assert (= "/" (str.at var8 497)))
(assert (= "Z" (str.at var40 931)))
(assert (= "~" (str.at var17 929)))
(assert (= ":" (str.at var12 304)))
(assert (= "g" (str.at var17 925)))
(assert (= "^" (str.at var51 257)))
(assert (= "H" (str.at var33 586)))
(assert (= "m" (str.at var27 416)))
(assert (= ";" (str.at var14 443)))
(assert (= "]" (str.at var42 532)))
(assert (= "i" (str.at var0 575)))
(assert (= "R" (str.at var20 286)))
(assert (= "2" (str.at var15 545)))
(assert (= "T" (str.at var40 662)))
(assert (= "0" (str.at var55 212)))
(assert (= """" (str.at var32 217)))
(assert (= "}" (str.at var32 83)))
(assert (= """" (str.at var26 741)))
(assert (= "9" (str.at var38 246)))
(assert (= "s" (str.at var8 814)))
(assert (= ">" (str.at var45 748)))
(assert (= "E" (str.at var27 173)))
(assert (= "K" (str.at var27 385)))
(assert (= "/" (str.at var12 276)))
(assert (= "L" (str.at var46 336)))
(assert (= "m" (str.at var18 288)))
(assert (= "V" (str.at var28 653)))
(assert (= "G" (str.at var37 862)))
(assert (= "a" (str.at var4 390)))
(assert (= "L" (str.at var20 266)))
(assert (= "H" (str.at var1 358)))
(assert (= "d" (str.at var9 92)))
(assert (= "|" (str.at var1 441)))
(assert (= "7" (str.at var51 452)))
(assert (= "M" (str.at var25 676)))
(assert (= "N" (str.at var26 725)))
(assert (= "o" (str.at var36 345)))
(assert (= "O" (str.at var18 29)))
(assert (= "J" (str.at var18 508)))
(assert (= "Z" (str.at var50 255)))
(assert (= "<" (str.at var2 776)))
(assert (= "M" (str.at var32 413)))
(assert (= ";" (str.at var26 521)))
(assert (= "g" (str.at var11 915)))
(assert (= "q" (str.at var4 109)))
(assert (= "g" (str.at var40 604)))
(assert (= "-" (str.at var46 919)))
(assert (= "o" (str.at var16 65)))
(assert (= "K" (str.at var54 756)))
(assert (= "Z" (str.at var21 872)))
(assert (= "5" (str.at var59 157)))
(assert (= "%" (str.at var23 292)))
(assert (= "a" (str.at var30 50)))
(assert (= "g" (str.at var57 598)))
(assert (= "O" (str.at var35 829)))
(assert (= "t" (str.at var44 172)))
(assert (= "f" (str.at var30 413)))
(assert (= "{" (str.at var49 174)))
(assert (= "@" (str.at var53 275)))
(assert (= "?" (str.at var52 80)))
(assert (= "l" (str.at var18 952)))
(assert (= "y" (str.at var32 197)))
(assert (= "%" (str.at var18 783)))
(assert (= "\\" (str.at var8 238)))
(assert (= "z" (str.at var16 293)))
(assert (= "V" (str.at var59 531)))
(assert (= "L" (str.at var15 682)))
(assert (= "L" (str.at var9 106)))
(assert (= "b" (str.at var37 996)))
(assert (= "{" (str.at var11 790)))
(assert (= "O" (str.at var23 19)))
(assert (= "D" (str.at var58 221)))
(assert (= "}" (str.at var55 56)))
(assert (= "k" (str.at var26 116)))
(assert (= "@" (str.at var40 93)))
(assert (= "O" (str.at var0 230)))
(assert (= "O" (str.at var46 371)))
(assert (= "k" (str.at var37 538)))
(assert (= "$" (str.at var24 947)))
(assert (= "D" (str.at var1 172)))
(check-sat)